SPARKNaCl/why3-z3/sparknacl-mac.adb_104_18_overflow_check2_1.smt2
;; produced by z3_gnatprove.drv ;;
(set-info :smt-lib-version 2.5)
(set-info :source |VC generated by SPARK 2014|)
(set-info :category industrial)
(set-info :status unknown)
;;; generated by SMT-LIB2 driver
;;; SMT-LIB2 driver: bit-vectors, common part
;;; SMT-LIB2: integer arithmetic
(declare-datatypes ()
  ((int__ref (int__refqtmk (int__content Int)))))

(declare-datatypes ()
  ((t__ref (t__refqtmk (t__content (_ BitVec 32))))))

(declare-sort byte 0)

;; "to_rep"
(declare-fun to_rep (byte) (_ BitVec 8))

;; "of_rep"
(declare-fun of_rep ((_ BitVec 8)) byte)

;; "inversion_axiom"
(assert
  (forall ((x byte)) (! (= (of_rep (to_rep x)) x) :pattern ((to_rep x)) )))

;; "range_axiom"
(assert true)

;; "coerce_axiom"
(assert
  (forall ((x (_ BitVec 8)))
    (! (= (to_rep (of_rep x)) x) :pattern ((to_rep (of_rep x))) )))

(declare-sort map1 0)

(declare-datatypes ()
  ((map__ref (map__refqtmk (map__content map1)))))

;; "has_bounds"
(declare-fun has_bounds (map1
  Int
  Int) Bool)

;; "get"
(declare-fun get (map1
  Int) byte)

(declare-datatypes ()
  ((us_split_fields
   (us_split_fieldsqtmk (rec__ada___sparknacl__mac__poly_1305_key__f map1)))))

(declare-datatypes ()
  ((us_rep (us_repqtmk (us_split_fields1 us_split_fields)))))

;; "dynamic_invariant"
(define-fun dynamic_invariant ((temp___expr_297 us_rep) (temp___is_init_293 Bool) (temp___skip_constant_294 Bool) (temp___do_toplevel_295 Bool) (temp___do_typ_inv_296 Bool)) Bool
  (has_bounds
    (rec__ada___sparknacl__mac__poly_1305_key__f
      (us_split_fields1 temp___expr_297))
    0
    31))

(declare-sort tinteger_32B 0)

;; "tinteger_32B'int"
(declare-fun tinteger_32Bqtint (tinteger_32B) Int)

;; "tinteger_32B'axiom"
(assert
  (forall ((i tinteger_32B))
    (and
      (<= (- 2147483648) (tinteger_32Bqtint i))
      (<= (tinteger_32Bqtint i) 2147483647))))

;; "in_range"
(define-fun in_range ((x Int)) Bool
  (and (<= (- 2147483648) x) (<= x 2147483647)))

;; "to_rep"
(define-fun to_rep1 ((x tinteger_32B)) Int
  (tinteger_32Bqtint x))

;; "of_rep"
(declare-fun of_rep1 (Int) tinteger_32B)

;; "inversion_axiom"
(assert
  (forall ((x tinteger_32B))
    (! (= (of_rep1 (to_rep1 x)) x) :pattern ((to_rep1 x)) )))

;; "range_axiom"
(assert
  (forall ((x tinteger_32B))
    (! (in_range (to_rep1 x)) :pattern ((to_rep1 x)) )))

;; "coerce_axiom"
(assert
  (forall ((x Int))
    (! (=> (in_range x) (= (to_rep1 (of_rep1 x)) x)) :pattern ((to_rep1
                                                                 (of_rep1 x))) )))

;; "in_range"
(define-fun in_range1 ((x Int)) Bool
  (and (<= 0 x) (<= x 2147483647)))

(declare-datatypes ()
  ((t (tqtmk (rec__first tinteger_32B)(rec__last tinteger_32B)))))

;; "dynamic_property"
(define-fun dynamic_property ((range_first Int) (range_last Int) (low Int) (high Int)) Bool
  (and
    (in_range low)
    (and
      (in_range high)
      (=> (<= low high) (and (in_range1 low) (in_range1 high))))))

(declare-datatypes ()
  ((us_t (us_tqtmk (elts map1)(rt t)))))

;; "first"
(define-fun first ((a us_t)) Int
  (to_rep1 (rec__first (rt a))))

;; "last"
(define-fun last ((a us_t)) Int
  (to_rep1 (rec__last (rt a))))

;; "length"
(define-fun length ((a us_t)) Int
  (ite (<= (first a) (last a)) (+ (- (last a) (first a)) 1) 0))

;; "well_formed"
(define-fun well_formed ((a us_t)) Bool
  (has_bounds
    (elts a)
    (to_rep1 (rec__first (rt a)))
    (to_rep1 (rec__last (rt a)))))

(declare-const m us_t)

(declare-const k us_rep)

(declare-sort u32 0)

;; "to_rep"
(declare-fun to_rep2 (u32) (_ BitVec 32))

;; "of_rep"
(declare-fun of_rep2 ((_ BitVec 32)) u32)

;; "inversion_axiom"
(assert
  (forall ((x u32)) (! (= (of_rep2 (to_rep2 x)) x) :pattern ((to_rep2 x)) )))

;; "range_axiom"
(assert true)

;; "coerce_axiom"
(assert
  (forall ((x (_ BitVec 32)))
    (! (= (to_rep2 (of_rep2 x)) x) :pattern ((to_rep2 (of_rep2 x))) )))

(declare-sort map2 0)

(declare-datatypes ()
  ((map__ref1 (map__refqtmk1 (map__content1 map2)))))

;; "has_bounds"
(declare-fun has_bounds1 (map2
  Int
  Int) Bool)

;; "get"
(declare-fun get1 (map2
  Int) u32)

(declare-const minusp map2)

;; "dynamic_invariant"
(define-fun dynamic_invariant1 ((temp___expr_252 us_t) (temp___is_init_248 Bool) (temp___skip_constant_249 Bool) (temp___do_toplevel_250 Bool) (temp___do_typ_inv_251 Bool)) Bool
  (and
    (=>
      (not (= temp___skip_constant_249 true))
      (dynamic_property
        0
        2147483647
        (first temp___expr_252)
        (last temp___expr_252)))
    (well_formed temp___expr_252)))

;; "in_range"
(define-fun in_range2 ((x Int)) Bool
  (and (<= 0 x) (<= x 16)))

;; "ada___sparknacl__mac__minusp__aggregate_def"
(declare-fun ada___sparknacl__mac__minusp__aggregate_def ((_ BitVec 32)
  (_ BitVec 32)
  (_ BitVec 32)
  (_ BitVec 32)
  (_ BitVec 32)
  (_ BitVec 32)
  (_ BitVec 32)
  (_ BitVec 32)
  (_ BitVec 32)
  (_ BitVec 32)
  (_ BitVec 32)
  (_ BitVec 32)
  (_ BitVec 32)
  (_ BitVec 32)
  (_ BitVec 32)
  (_ BitVec 32)
  (_ BitVec 32)) map2)

;; "in_range"
(define-fun in_range3 ((x Int)) Bool
  (and (<= (- 9223372036854775808) x) (<= x 9223372036854775807)))

;; "in_range"
(define-fun in_range4 ((x Int)) Bool
  (and (<= (- 9223372036854775808) x) (<= x 9223372036854775807)))

;; "temp_____aggregate_def_622"
(declare-fun temp_____aggregate_def_622 ((_ BitVec 32)) map2)

;; "temp_____aggregate_def_630"
(declare-fun temp_____aggregate_def_630 ((_ BitVec 32)) map2)

;; "temp_____aggregate_def_654"
(declare-fun temp_____aggregate_def_654 ((_ BitVec 32)
  (_ BitVec 32)
  (_ BitVec 32)
  (_ BitVec 32)
  (_ BitVec 32)
  (_ BitVec 32)
  (_ BitVec 32)
  (_ BitVec 32)
  (_ BitVec 32)
  (_ BitVec 32)
  (_ BitVec 32)
  (_ BitVec 32)
  (_ BitVec 32)
  (_ BitVec 32)
  (_ BitVec 32)
  (_ BitVec 32)
  (_ BitVec 32)) map2)

;; "temp_____aggregate_def_680"
(declare-fun temp_____aggregate_def_680 ((_ BitVec 32)) map2)

;; "minusp__def_axiom"
(assert
  (= minusp (let ((temp___199 (ada___sparknacl__mac__minusp__aggregate_def
                                #x00000005
                                #x00000000
                                #x00000000
                                #x00000000
                                #x00000000
                                #x00000000
                                #x00000000
                                #x00000000
                                #x00000000
                                #x00000000
                                #x00000000
                                #x00000000
                                #x00000000
                                #x00000000
                                #x00000000
                                #x00000000
                                #x000000FC)))
              (let ((temp___200 temp___199)) temp___200))))

;; "def_axiom"
(assert
  (forall ((temp___179 (_ BitVec 32)) (temp___180 (_ BitVec 32)) (temp___181 (_ BitVec 32)) (temp___182 (_ BitVec 32)) (temp___183 (_ BitVec 32)) (temp___184 (_ BitVec 32)) (temp___185 (_ BitVec 32)) (temp___186 (_ BitVec 32)) (temp___187 (_ BitVec 32)) (temp___188 (_ BitVec 32)) (temp___189 (_ BitVec 32)) (temp___190 (_ BitVec 32)) (temp___191 (_ BitVec 32)) (temp___192 (_ BitVec 32)) (temp___193 (_ BitVec 32)) (temp___194 (_ BitVec 32)) (temp___195 (_ BitVec 32)))
    (let ((temp___196 (ada___sparknacl__mac__minusp__aggregate_def
                        temp___179
                        temp___180
                        temp___181
                        temp___182
                        temp___183
                        temp___184
                        temp___185
                        temp___186
                        temp___187
                        temp___188
                        temp___189
                        temp___190
                        temp___191
                        temp___192
                        temp___193
                        temp___194
                        temp___195)))
      (and
        (and
          (and
            (= (to_rep2 (get1 temp___196 0)) temp___179)
            (= (to_rep2 (get1 temp___196 1)) temp___180))
          (and
            (and
              (and
                (and
                  (= (to_rep2 (get1 temp___196 2)) temp___181)
                  (= (to_rep2 (get1 temp___196 3)) temp___182))
                (and
                  (= (to_rep2 (get1 temp___196 4)) temp___183)
                  (= (to_rep2 (get1 temp___196 5)) temp___184)))
              (and
                (and
                  (= (to_rep2 (get1 temp___196 6)) temp___185)
                  (= (to_rep2 (get1 temp___196 7)) temp___186))
                (and
                  (= (to_rep2 (get1 temp___196 8)) temp___187)
                  (= (to_rep2 (get1 temp___196 9)) temp___188))))
            (and
              (and
                (and
                  (= (to_rep2 (get1 temp___196 10)) temp___189)
                  (= (to_rep2 (get1 temp___196 11)) temp___190))
                (and
                  (= (to_rep2 (get1 temp___196 12)) temp___191)
                  (= (to_rep2 (get1 temp___196 13)) temp___192)))
              (and
                (and
                  (= (to_rep2 (get1 temp___196 14)) temp___193)
                  (= (to_rep2 (get1 temp___196 15)) temp___194))
                (= (to_rep2 (get1 temp___196 16)) temp___195)))))
        (=>
          (and
            (and (and (<= 0 0) (<= 0 16)) (and (<= 0 1) (<= 1 16)))
            (and
              (and
                (and
                  (and (and (<= 0 2) (<= 2 16)) (and (<= 0 3) (<= 3 16)))
                  (and (and (<= 0 4) (<= 4 16)) (and (<= 0 5) (<= 5 16))))
                (and
                  (and (and (<= 0 6) (<= 6 16)) (and (<= 0 7) (<= 7 16)))
                  (and (and (<= 0 8) (<= 8 16)) (and (<= 0 9) (<= 9 16)))))
              (and
                (and
                  (and (and (<= 0 10) (<= 10 16)) (and (<= 0 11) (<= 11 16)))
                  (and (and (<= 0 12) (<= 12 16)) (and (<= 0 13) (<= 13 16))))
                (and
                  (and (and (<= 0 14) (<= 14 16)) (and (<= 0 15) (<= 15 16)))
                  (and (<= 0 16) (<= 16 16))))))
          (has_bounds1 temp___196 0 16))))))

(declare-const output map1)

(declare-const s (_ BitVec 32))

(declare-const u (_ BitVec 32))

(declare-const j Int)

(declare-const n Int)

(declare-const m_offset Int)

(declare-const x map2)

(declare-const r map2)

(declare-const h map2)

(declare-const c map2)

(declare-const g map2)

;; "g'unused"
(define-fun gqtunused () map__ref1
  (map__refqtmk1 g))

;; "c'unused"
(define-fun cqtunused () map__ref1
  (map__refqtmk1 c))

;; "h'unused"
(define-fun hqtunused () map__ref1
  (map__refqtmk1 h))

;; "r'unused"
(define-fun rqtunused () map__ref1
  (map__refqtmk1 r))

;; "x'unused"
(define-fun xqtunused () map__ref1
  (map__refqtmk1 x))

;; "m_offset'unused"
(define-fun m_offsetqtunused () int__ref
  (int__refqtmk m_offset))

;; "n'unused"
(define-fun nqtunused () int__ref
  (int__refqtmk n))

;; "j'unused"
(define-fun jqtunused () int__ref
  (int__refqtmk j))

;; "u'unused"
(define-fun uqtunused () t__ref
  (t__refqtmk u))

;; "s'unused"
(define-fun sqtunused () t__ref
  (t__refqtmk s))

;; "output'unused"
(define-fun outputqtunused () map__ref
  (map__refqtmk output))

;; "Assume"
(assert (has_bounds1 minusp 0 16))

(declare-const temp___834 map2)

;; "H"
(assert (= (to_rep2 (get1 temp___834 0)) #x00000005))

;; "H"
(assert (= (to_rep2 (get1 temp___834 1)) #x00000000))

;; "H"
(assert (= (to_rep2 (get1 temp___834 2)) #x00000000))

;; "H"
(assert (= (to_rep2 (get1 temp___834 3)) #x00000000))

;; "H"
(assert (= (to_rep2 (get1 temp___834 4)) #x00000000))

;; "H"
(assert (= (to_rep2 (get1 temp___834 5)) #x00000000))

;; "H"
(assert (= (to_rep2 (get1 temp___834 6)) #x00000000))

;; "H"
(assert (= (to_rep2 (get1 temp___834 7)) #x00000000))

;; "H"
(assert (= (to_rep2 (get1 temp___834 8)) #x00000000))

;; "H"
(assert (= (to_rep2 (get1 temp___834 9)) #x00000000))

;; "H"
(assert (= (to_rep2 (get1 temp___834 10)) #x00000000))

;; "H"
(assert (= (to_rep2 (get1 temp___834 11)) #x00000000))

;; "H"
(assert (= (to_rep2 (get1 temp___834 12)) #x00000000))

;; "H"
(assert (= (to_rep2 (get1 temp___834 13)) #x00000000))

;; "H"
(assert (= (to_rep2 (get1 temp___834 14)) #x00000000))

;; "H"
(assert (= (to_rep2 (get1 temp___834 15)) #x00000000))

;; "H"
(assert (= (to_rep2 (get1 temp___834 16)) #x000000FC))

;; "H"
(assert (has_bounds1 temp___834 0 16))

;; "H"
(assert
  (= temp___834 (ada___sparknacl__mac__minusp__aggregate_def
                  #x00000005
                  #x00000000
                  #x00000000
                  #x00000000
                  #x00000000
                  #x00000000
                  #x00000000
                  #x00000000
                  #x00000000
                  #x00000000
                  #x00000000
                  #x00000000
                  #x00000000
                  #x00000000
                  #x00000000
                  #x00000000
                  #x000000FC)))

;; "ada___sparknacl__mac__minusp__aggregate_def'result'unused"
(define-fun ada___sparknacl__mac__minusp__aggregate_defqtresultqtunused 
  () map2
  temp___834)

;; "Assume"
(assert (= temp___834 minusp))

;; "Assume"
(assert (has_bounds output 0 15))

;; "Assume"
(assert (dynamic_invariant1 m true false true true))

;; "Assume"
(assert (dynamic_invariant k true false true true))

;; "Assume"
(assert (= (first m) 0))

;; "Assume"
(assert true)

;; "Assume"
(assert true)

;; "Assume"
(assert true)

;; "Assume"
(assert true)

;; "Assume"
(assert true)

;; "Assume"
(assert (in_range2 j))

;; "Assume"
(assert true)

;; "Assume"
(assert (in_range4 n))

;; "Assume"
(assert true)

;; "Assume"
(assert (in_range1 m_offset))

;; "Assume"
(assert true)

;; "Assume"
(assert (has_bounds1 x 0 16))

;; "Assume"
(assert true)

;; "Assume"
(assert (has_bounds1 r 0 16))

;; "Assume"
(assert true)

;; "Assume"
(assert (has_bounds1 h 0 16))

;; "Assume"
(assert true)

;; "Assume"
(assert (has_bounds1 c 0 16))

;; "Assume"
(assert true)

;; "Assume"
(assert (has_bounds1 g 0 16))

(declare-const temp___626 map2)

;; "H"
(assert (has_bounds1 temp___626 0 16))

;; "H"
(assert
  (forall ((temp___625 Int))
    (! (=>
         (and (<= 0 temp___625) (<= temp___625 16))
         (= (to_rep2 (get1 temp___626 temp___625)) #x00000000)) :pattern (
    (get1
      temp___626
      temp___625)) )))

;; "H"
(assert (= temp___626 (temp_____aggregate_def_622 #x00000000)))

;; "temp_____aggregate_def_622'result'unused"
(define-fun temp_____aggregate_def_622qtresultqtunused () map2
  temp___626)

(declare-const h1 map2)

;; "h'unused"
(define-fun hqtunused1 () map__ref1
  (map__refqtmk1 h1))

;; "H"
(assert (= h1 temp___626))

(declare-const temp___634 map2)

;; "H"
(assert (has_bounds1 temp___634 0 16))

;; "H"
(assert
  (forall ((temp___633 Int))
    (! (=>
         (and (<= 0 temp___633) (<= temp___633 16))
         (= (to_rep2 (get1 temp___634 temp___633)) #x00000000)) :pattern (
    (get1
      temp___634
      temp___633)) )))

;; "H"
(assert (= temp___634 (temp_____aggregate_def_630 #x00000000)))

;; "temp_____aggregate_def_630'result'unused"
(define-fun temp_____aggregate_def_630qtresultqtunused () map2
  temp___634)

(declare-const x1 map2)

;; "x'unused"
(define-fun xqtunused1 () map__ref1
  (map__refqtmk1 x1))

;; "H"
(assert (= x1 temp___634))

;; "o"
(define-fun o () us_split_fields
  (us_split_fields1 k))

;; "__split_fields'result'unused"
(define-fun us_split_fieldsqtresultqtunused () us_split_fields
  o)

;; "temp___673"
(define-fun temp___673 () map1
  (rec__ada___sparknacl__mac__poly_1305_key__f o))

;; "rec__ada___sparknacl__mac__poly_1305_key__f'result'unused"
(define-fun rec__ada___sparknacl__mac__poly_1305_key__fqtresultqtunused 
  () map1
  temp___673)

;; "o"
(define-fun o1 () byte
  (get temp___673 15))

;; "get'result'unused"
(define-fun getqtresultqtunused () byte
  o1)

(declare-const o2 (_ BitVec 8))

;; "Ensures"
(assert (= (to_rep o1) o2))

;; "to_rep'result'unused"
(define-fun to_repqtresultqtunused () (_ BitVec 8)
  o2)

;; "o"
(define-fun o3 () (_ BitVec 32)
  ((_ zero_extend 24) o2))

;; "toBig'result'unused"
(define-fun toBigqtresultqtunused () (_ BitVec 32)
  o3)

;; "o"
(define-fun o4 () (_ BitVec 32)
  (bvand o3 #x0000000F))

;; "bw_and'result'unused"
(define-fun bw_andqtresultqtunused () (_ BitVec 32)
  o4)

;; "o"
(define-fun o5 () us_split_fields
  (us_split_fields1 k))

;; "__split_fields'result'unused"
(define-fun us_split_fieldsqtresultqtunused1 () us_split_fields
  o5)

;; "temp___672"
(define-fun temp___672 () map1
  (rec__ada___sparknacl__mac__poly_1305_key__f o5))

;; "rec__ada___sparknacl__mac__poly_1305_key__f'result'unused"
(define-fun rec__ada___sparknacl__mac__poly_1305_key__fqtresultqtunused1 
  () map1
  temp___672)

;; "o"
(define-fun o6 () byte
  (get temp___672 14))

;; "get'result'unused"
(define-fun getqtresultqtunused1 () byte
  o6)

(declare-const o7 (_ BitVec 8))

;; "Ensures"
(assert (= (to_rep o6) o7))

;; "to_rep'result'unused"
(define-fun to_repqtresultqtunused1 () (_ BitVec 8)
  o7)

;; "o"
(define-fun o8 () (_ BitVec 32)
  ((_ zero_extend 24) o7))

;; "toBig'result'unused"
(define-fun toBigqtresultqtunused1 () (_ BitVec 32)
  o8)

;; "o"
(define-fun o9 () us_split_fields
  (us_split_fields1 k))

;; "__split_fields'result'unused"
(define-fun us_split_fieldsqtresultqtunused2 () us_split_fields
  o9)

;; "temp___671"
(define-fun temp___671 () map1
  (rec__ada___sparknacl__mac__poly_1305_key__f o9))

;; "rec__ada___sparknacl__mac__poly_1305_key__f'result'unused"
(define-fun rec__ada___sparknacl__mac__poly_1305_key__fqtresultqtunused2 
  () map1
  temp___671)

;; "o"
(define-fun o10 () byte
  (get temp___671 13))

;; "get'result'unused"
(define-fun getqtresultqtunused2 () byte
  o10)

(declare-const o11 (_ BitVec 8))

;; "Ensures"
(assert (= (to_rep o10) o11))

;; "to_rep'result'unused"
(define-fun to_repqtresultqtunused2 () (_ BitVec 8)
  o11)

;; "o"
(define-fun o12 () (_ BitVec 32)
  ((_ zero_extend 24) o11))

;; "toBig'result'unused"
(define-fun toBigqtresultqtunused2 () (_ BitVec 32)
  o12)

;; "o"
(define-fun o13 () us_split_fields
  (us_split_fields1 k))

;; "__split_fields'result'unused"
(define-fun us_split_fieldsqtresultqtunused3 () us_split_fields
  o13)

;; "temp___670"
(define-fun temp___670 () map1
  (rec__ada___sparknacl__mac__poly_1305_key__f o13))

;; "rec__ada___sparknacl__mac__poly_1305_key__f'result'unused"
(define-fun rec__ada___sparknacl__mac__poly_1305_key__fqtresultqtunused3 
  () map1
  temp___670)

;; "o"
(define-fun o14 () byte
  (get temp___670 12))

;; "get'result'unused"
(define-fun getqtresultqtunused3 () byte
  o14)

(declare-const o15 (_ BitVec 8))

;; "Ensures"
(assert (= (to_rep o14) o15))

;; "to_rep'result'unused"
(define-fun to_repqtresultqtunused3 () (_ BitVec 8)
  o15)

;; "o"
(define-fun o16 () (_ BitVec 32)
  ((_ zero_extend 24) o15))

;; "toBig'result'unused"
(define-fun toBigqtresultqtunused3 () (_ BitVec 32)
  o16)

;; "o"
(define-fun o17 () (_ BitVec 32)
  (bvand o16 #x000000FC))

;; "bw_and'result'unused"
(define-fun bw_andqtresultqtunused1 () (_ BitVec 32)
  o17)

;; "o"
(define-fun o18 () us_split_fields
  (us_split_fields1 k))

;; "__split_fields'result'unused"
(define-fun us_split_fieldsqtresultqtunused4 () us_split_fields
  o18)

;; "temp___669"
(define-fun temp___669 () map1
  (rec__ada___sparknacl__mac__poly_1305_key__f o18))

;; "rec__ada___sparknacl__mac__poly_1305_key__f'result'unused"
(define-fun rec__ada___sparknacl__mac__poly_1305_key__fqtresultqtunused4 
  () map1
  temp___669)

;; "o"
(define-fun o19 () byte
  (get temp___669 11))

;; "get'result'unused"
(define-fun getqtresultqtunused4 () byte
  o19)

(declare-const o20 (_ BitVec 8))

;; "Ensures"
(assert (= (to_rep o19) o20))

;; "to_rep'result'unused"
(define-fun to_repqtresultqtunused4 () (_ BitVec 8)
  o20)

;; "o"
(define-fun o21 () (_ BitVec 32)
  ((_ zero_extend 24) o20))

;; "toBig'result'unused"
(define-fun toBigqtresultqtunused4 () (_ BitVec 32)
  o21)

;; "o"
(define-fun o22 () (_ BitVec 32)
  (bvand o21 #x0000000F))

;; "bw_and'result'unused"
(define-fun bw_andqtresultqtunused2 () (_ BitVec 32)
  o22)

;; "o"
(define-fun o23 () us_split_fields
  (us_split_fields1 k))

;; "__split_fields'result'unused"
(define-fun us_split_fieldsqtresultqtunused5 () us_split_fields
  o23)

;; "temp___668"
(define-fun temp___668 () map1
  (rec__ada___sparknacl__mac__poly_1305_key__f o23))

;; "rec__ada___sparknacl__mac__poly_1305_key__f'result'unused"
(define-fun rec__ada___sparknacl__mac__poly_1305_key__fqtresultqtunused5 
  () map1
  temp___668)

;; "o"
(define-fun o24 () byte
  (get temp___668 10))

;; "get'result'unused"
(define-fun getqtresultqtunused5 () byte
  o24)

(declare-const o25 (_ BitVec 8))

;; "Ensures"
(assert (= (to_rep o24) o25))

;; "to_rep'result'unused"
(define-fun to_repqtresultqtunused5 () (_ BitVec 8)
  o25)

;; "o"
(define-fun o26 () (_ BitVec 32)
  ((_ zero_extend 24) o25))

;; "toBig'result'unused"
(define-fun toBigqtresultqtunused5 () (_ BitVec 32)
  o26)

;; "o"
(define-fun o27 () us_split_fields
  (us_split_fields1 k))

;; "__split_fields'result'unused"
(define-fun us_split_fieldsqtresultqtunused6 () us_split_fields
  o27)

;; "temp___667"
(define-fun temp___667 () map1
  (rec__ada___sparknacl__mac__poly_1305_key__f o27))

;; "rec__ada___sparknacl__mac__poly_1305_key__f'result'unused"
(define-fun rec__ada___sparknacl__mac__poly_1305_key__fqtresultqtunused6 
  () map1
  temp___667)

;; "o"
(define-fun o28 () byte
  (get temp___667 9))

;; "get'result'unused"
(define-fun getqtresultqtunused6 () byte
  o28)

(declare-const o29 (_ BitVec 8))

;; "Ensures"
(assert (= (to_rep o28) o29))

;; "to_rep'result'unused"
(define-fun to_repqtresultqtunused6 () (_ BitVec 8)
  o29)

;; "o"
(define-fun o30 () (_ BitVec 32)
  ((_ zero_extend 24) o29))

;; "toBig'result'unused"
(define-fun toBigqtresultqtunused6 () (_ BitVec 32)
  o30)

;; "o"
(define-fun o31 () us_split_fields
  (us_split_fields1 k))

;; "__split_fields'result'unused"
(define-fun us_split_fieldsqtresultqtunused7 () us_split_fields
  o31)

;; "temp___666"
(define-fun temp___666 () map1
  (rec__ada___sparknacl__mac__poly_1305_key__f o31))

;; "rec__ada___sparknacl__mac__poly_1305_key__f'result'unused"
(define-fun rec__ada___sparknacl__mac__poly_1305_key__fqtresultqtunused7 
  () map1
  temp___666)

;; "o"
(define-fun o32 () byte
  (get temp___666 8))

;; "get'result'unused"
(define-fun getqtresultqtunused7 () byte
  o32)

(declare-const o33 (_ BitVec 8))

;; "Ensures"
(assert (= (to_rep o32) o33))

;; "to_rep'result'unused"
(define-fun to_repqtresultqtunused7 () (_ BitVec 8)
  o33)

;; "o"
(define-fun o34 () (_ BitVec 32)
  ((_ zero_extend 24) o33))

;; "toBig'result'unused"
(define-fun toBigqtresultqtunused7 () (_ BitVec 32)
  o34)

;; "o"
(define-fun o35 () (_ BitVec 32)
  (bvand o34 #x000000FC))

;; "bw_and'result'unused"
(define-fun bw_andqtresultqtunused3 () (_ BitVec 32)
  o35)

;; "o"
(define-fun o36 () us_split_fields
  (us_split_fields1 k))

;; "__split_fields'result'unused"
(define-fun us_split_fieldsqtresultqtunused8 () us_split_fields
  o36)

;; "temp___665"
(define-fun temp___665 () map1
  (rec__ada___sparknacl__mac__poly_1305_key__f o36))

;; "rec__ada___sparknacl__mac__poly_1305_key__f'result'unused"
(define-fun rec__ada___sparknacl__mac__poly_1305_key__fqtresultqtunused8 
  () map1
  temp___665)

;; "o"
(define-fun o37 () byte
  (get temp___665 7))

;; "get'result'unused"
(define-fun getqtresultqtunused8 () byte
  o37)

(declare-const o38 (_ BitVec 8))

;; "Ensures"
(assert (= (to_rep o37) o38))

;; "to_rep'result'unused"
(define-fun to_repqtresultqtunused8 () (_ BitVec 8)
  o38)

;; "o"
(define-fun o39 () (_ BitVec 32)
  ((_ zero_extend 24) o38))

;; "toBig'result'unused"
(define-fun toBigqtresultqtunused8 () (_ BitVec 32)
  o39)

;; "o"
(define-fun o40 () (_ BitVec 32)
  (bvand o39 #x0000000F))

;; "bw_and'result'unused"
(define-fun bw_andqtresultqtunused4 () (_ BitVec 32)
  o40)

;; "o"
(define-fun o41 () us_split_fields
  (us_split_fields1 k))

;; "__split_fields'result'unused"
(define-fun us_split_fieldsqtresultqtunused9 () us_split_fields
  o41)

;; "temp___664"
(define-fun temp___664 () map1
  (rec__ada___sparknacl__mac__poly_1305_key__f o41))

;; "rec__ada___sparknacl__mac__poly_1305_key__f'result'unused"
(define-fun rec__ada___sparknacl__mac__poly_1305_key__fqtresultqtunused9 
  () map1
  temp___664)

;; "o"
(define-fun o42 () byte
  (get temp___664 6))

;; "get'result'unused"
(define-fun getqtresultqtunused9 () byte
  o42)

(declare-const o43 (_ BitVec 8))

;; "Ensures"
(assert (= (to_rep o42) o43))

;; "to_rep'result'unused"
(define-fun to_repqtresultqtunused9 () (_ BitVec 8)
  o43)

;; "o"
(define-fun o44 () (_ BitVec 32)
  ((_ zero_extend 24) o43))

;; "toBig'result'unused"
(define-fun toBigqtresultqtunused9 () (_ BitVec 32)
  o44)

;; "o"
(define-fun o45 () us_split_fields
  (us_split_fields1 k))

;; "__split_fields'result'unused"
(define-fun us_split_fieldsqtresultqtunused10 () us_split_fields
  o45)

;; "temp___663"
(define-fun temp___663 () map1
  (rec__ada___sparknacl__mac__poly_1305_key__f o45))

;; "rec__ada___sparknacl__mac__poly_1305_key__f'result'unused"
(define-fun rec__ada___sparknacl__mac__poly_1305_key__fqtresultqtunused10 
  () map1
  temp___663)

;; "o"
(define-fun o46 () byte
  (get temp___663 5))

;; "get'result'unused"
(define-fun getqtresultqtunused10 () byte
  o46)

(declare-const o47 (_ BitVec 8))

;; "Ensures"
(assert (= (to_rep o46) o47))

;; "to_rep'result'unused"
(define-fun to_repqtresultqtunused10 () (_ BitVec 8)
  o47)

;; "o"
(define-fun o48 () (_ BitVec 32)
  ((_ zero_extend 24) o47))

;; "toBig'result'unused"
(define-fun toBigqtresultqtunused10 () (_ BitVec 32)
  o48)

;; "o"
(define-fun o49 () us_split_fields
  (us_split_fields1 k))

;; "__split_fields'result'unused"
(define-fun us_split_fieldsqtresultqtunused11 () us_split_fields
  o49)

;; "temp___662"
(define-fun temp___662 () map1
  (rec__ada___sparknacl__mac__poly_1305_key__f o49))

;; "rec__ada___sparknacl__mac__poly_1305_key__f'result'unused"
(define-fun rec__ada___sparknacl__mac__poly_1305_key__fqtresultqtunused11 
  () map1
  temp___662)

;; "o"
(define-fun o50 () byte
  (get temp___662 4))

;; "get'result'unused"
(define-fun getqtresultqtunused11 () byte
  o50)

(declare-const o51 (_ BitVec 8))

;; "Ensures"
(assert (= (to_rep o50) o51))

;; "to_rep'result'unused"
(define-fun to_repqtresultqtunused11 () (_ BitVec 8)
  o51)

;; "o"
(define-fun o52 () (_ BitVec 32)
  ((_ zero_extend 24) o51))

;; "toBig'result'unused"
(define-fun toBigqtresultqtunused11 () (_ BitVec 32)
  o52)

;; "o"
(define-fun o53 () (_ BitVec 32)
  (bvand o52 #x000000FC))

;; "bw_and'result'unused"
(define-fun bw_andqtresultqtunused5 () (_ BitVec 32)
  o53)

;; "o"
(define-fun o54 () us_split_fields
  (us_split_fields1 k))

;; "__split_fields'result'unused"
(define-fun us_split_fieldsqtresultqtunused12 () us_split_fields
  o54)

;; "temp___661"
(define-fun temp___661 () map1
  (rec__ada___sparknacl__mac__poly_1305_key__f o54))

;; "rec__ada___sparknacl__mac__poly_1305_key__f'result'unused"
(define-fun rec__ada___sparknacl__mac__poly_1305_key__fqtresultqtunused12 
  () map1
  temp___661)

;; "o"
(define-fun o55 () byte
  (get temp___661 3))

;; "get'result'unused"
(define-fun getqtresultqtunused12 () byte
  o55)

(declare-const o56 (_ BitVec 8))

;; "Ensures"
(assert (= (to_rep o55) o56))

;; "to_rep'result'unused"
(define-fun to_repqtresultqtunused12 () (_ BitVec 8)
  o56)

;; "o"
(define-fun o57 () (_ BitVec 32)
  ((_ zero_extend 24) o56))

;; "toBig'result'unused"
(define-fun toBigqtresultqtunused12 () (_ BitVec 32)
  o57)

;; "o"
(define-fun o58 () (_ BitVec 32)
  (bvand o57 #x0000000F))

;; "bw_and'result'unused"
(define-fun bw_andqtresultqtunused6 () (_ BitVec 32)
  o58)

;; "o"
(define-fun o59 () us_split_fields
  (us_split_fields1 k))

;; "__split_fields'result'unused"
(define-fun us_split_fieldsqtresultqtunused13 () us_split_fields
  o59)

;; "temp___660"
(define-fun temp___660 () map1
  (rec__ada___sparknacl__mac__poly_1305_key__f o59))

;; "rec__ada___sparknacl__mac__poly_1305_key__f'result'unused"
(define-fun rec__ada___sparknacl__mac__poly_1305_key__fqtresultqtunused13 
  () map1
  temp___660)

;; "o"
(define-fun o60 () byte
  (get temp___660 2))

;; "get'result'unused"
(define-fun getqtresultqtunused13 () byte
  o60)

(declare-const o61 (_ BitVec 8))

;; "Ensures"
(assert (= (to_rep o60) o61))

;; "to_rep'result'unused"
(define-fun to_repqtresultqtunused13 () (_ BitVec 8)
  o61)

;; "o"
(define-fun o62 () (_ BitVec 32)
  ((_ zero_extend 24) o61))

;; "toBig'result'unused"
(define-fun toBigqtresultqtunused13 () (_ BitVec 32)
  o62)

;; "o"
(define-fun o63 () us_split_fields
  (us_split_fields1 k))

;; "__split_fields'result'unused"
(define-fun us_split_fieldsqtresultqtunused14 () us_split_fields
  o63)

;; "temp___659"
(define-fun temp___659 () map1
  (rec__ada___sparknacl__mac__poly_1305_key__f o63))

;; "rec__ada___sparknacl__mac__poly_1305_key__f'result'unused"
(define-fun rec__ada___sparknacl__mac__poly_1305_key__fqtresultqtunused14 
  () map1
  temp___659)

;; "o"
(define-fun o64 () byte
  (get temp___659 1))

;; "get'result'unused"
(define-fun getqtresultqtunused14 () byte
  o64)

(declare-const o65 (_ BitVec 8))

;; "Ensures"
(assert (= (to_rep o64) o65))

;; "to_rep'result'unused"
(define-fun to_repqtresultqtunused14 () (_ BitVec 8)
  o65)

;; "o"
(define-fun o66 () (_ BitVec 32)
  ((_ zero_extend 24) o65))

;; "toBig'result'unused"
(define-fun toBigqtresultqtunused14 () (_ BitVec 32)
  o66)

;; "o"
(define-fun o67 () us_split_fields
  (us_split_fields1 k))

;; "__split_fields'result'unused"
(define-fun us_split_fieldsqtresultqtunused15 () us_split_fields
  o67)

;; "temp___658"
(define-fun temp___658 () map1
  (rec__ada___sparknacl__mac__poly_1305_key__f o67))

;; "rec__ada___sparknacl__mac__poly_1305_key__f'result'unused"
(define-fun rec__ada___sparknacl__mac__poly_1305_key__fqtresultqtunused15 
  () map1
  temp___658)

;; "o"
(define-fun o68 () byte
  (get temp___658 0))

;; "get'result'unused"
(define-fun getqtresultqtunused15 () byte
  o68)

(declare-const o69 (_ BitVec 8))

;; "Ensures"
(assert (= (to_rep o68) o69))

;; "to_rep'result'unused"
(define-fun to_repqtresultqtunused15 () (_ BitVec 8)
  o69)

;; "o"
(define-fun o70 () (_ BitVec 32)
  ((_ zero_extend 24) o69))

;; "toBig'result'unused"
(define-fun toBigqtresultqtunused15 () (_ BitVec 32)
  o70)

(declare-const temp___674 map2)

;; "H"
(assert (= (to_rep2 (get1 temp___674 0)) o70))

;; "H"
(assert (= (to_rep2 (get1 temp___674 1)) o66))

;; "H"
(assert (= (to_rep2 (get1 temp___674 2)) o62))

;; "H"
(assert (= (to_rep2 (get1 temp___674 3)) o58))

;; "H"
(assert (= (to_rep2 (get1 temp___674 4)) o53))

;; "H"
(assert (= (to_rep2 (get1 temp___674 5)) o48))

;; "H"
(assert (= (to_rep2 (get1 temp___674 6)) o44))

;; "H"
(assert (= (to_rep2 (get1 temp___674 7)) o40))

;; "H"
(assert (= (to_rep2 (get1 temp___674 8)) o35))

;; "H"
(assert (= (to_rep2 (get1 temp___674 9)) o30))

;; "H"
(assert (= (to_rep2 (get1 temp___674 10)) o26))

;; "H"
(assert (= (to_rep2 (get1 temp___674 11)) o22))

;; "H"
(assert (= (to_rep2 (get1 temp___674 12)) o17))

;; "H"
(assert (= (to_rep2 (get1 temp___674 13)) o12))

;; "H"
(assert (= (to_rep2 (get1 temp___674 14)) o8))

;; "H"
(assert (= (to_rep2 (get1 temp___674 15)) o4))

;; "H"
(assert (= (to_rep2 (get1 temp___674 16)) #x00000000))

;; "H"
(assert (has_bounds1 temp___674 0 16))

;; "H"
(assert
  (= temp___674 (temp_____aggregate_def_654
                  o70
                  o66
                  o62
                  o58
                  o53
                  o48
                  o44
                  o40
                  o35
                  o30
                  o26
                  o22
                  o17
                  o12
                  o8
                  o4
                  #x00000000)))

;; "temp_____aggregate_def_654'result'unused"
(define-fun temp_____aggregate_def_654qtresultqtunused () map2
  temp___674)

(declare-const r1 map2)

;; "r'unused"
(define-fun rqtunused1 () map__ref1
  (map__refqtmk1 r1))

;; "H"
(assert (= r1 temp___674))

;; "o"
(define-fun o71 () Int
  (length m))

;; "length'result'unused"
(define-fun lengthqtresultqtunused () Int
  o71)

;; "Ensures"
(assert (in_range3 o71))

;; "range_check_'result'unused"
(define-fun range_check_qtresultqtunused () Int
  o71)

(declare-const n1 Int)

;; "n'unused"
(define-fun nqtunused1 () int__ref
  (int__refqtmk n1))

;; "H"
(assert (= n1 o71))

(declare-const m_offset1 Int)

;; "m_offset'unused"
(define-fun m_offsetqtunused1 () int__ref
  (int__refqtmk m_offset1))

;; "H"
(assert (= m_offset1 0))

;; "int__content'result'unused"
(define-fun int__contentqtresultqtunused () Int
  n1)

;; "infix >'result'unused"
(define-fun infix_gtqtresultqtunused () Bool
  (ite (< 0 n1) true false))

;; "H"
(assert (< 0 n1))

;; "temp___loop_entry_752'unused"
(define-fun temp___loop_entry_752qtunused () map2
  c)

;; "map__content'result'unused"
(define-fun map__contentqtresultqtunused () map2
  c)

;; "temp___loop_entry_750'unused"
(define-fun temp___loop_entry_750qtunused () map2
  h1)

;; "map__content'result'unused"
(define-fun map__contentqtresultqtunused1 () map2
  h1)

;; "temp___loop_entry_747'unused"
(define-fun temp___loop_entry_747qtunused () map2
  x1)

;; "map__content'result'unused"
(define-fun map__contentqtresultqtunused2 () map2
  x1)

;; "temp___loop_entry_745'unused"
(define-fun temp___loop_entry_745qtunused () Int
  m_offset1)

;; "int__content'result'unused"
(define-fun int__contentqtresultqtunused1 () Int
  m_offset1)

;; "temp___loop_entry_744'unused"
(define-fun temp___loop_entry_744qtunused () Int
  n1)

;; "int__content'result'unused"
(define-fun int__contentqtresultqtunused2 () Int
  n1)

;; "temp___loop_entry_743'unused"
(define-fun temp___loop_entry_743qtunused () Int
  j)

;; "int__content'result'unused"
(define-fun int__contentqtresultqtunused3 () Int
  j)

;; "temp___loop_entry_742'unused"
(define-fun temp___loop_entry_742qtunused () (_ BitVec 32)
  u)

;; "t__content'result'unused"
(define-fun t__contentqtresultqtunused () (_ BitVec 32)
  u)

(declare-const temp___684 map2)

;; "H"
(assert (has_bounds1 temp___684 0 16))

;; "H"
(assert
  (forall ((temp___683 Int))
    (! (=>
         (and (<= 0 temp___683) (<= temp___683 16))
         (= (to_rep2 (get1 temp___684 temp___683)) #x00000000)) :pattern (
    (get1
      temp___684
      temp___683)) )))

;; "H"
(assert (= temp___684 (temp_____aggregate_def_680 #x00000000)))

;; "temp_____aggregate_def_680'result'unused"
(define-fun temp_____aggregate_def_680qtresultqtunused () map2
  temp___684)

(declare-const c1 map2)

;; "H"
(assert (= c1 temp___684))

(declare-const j1 Int)

;; "H"
(assert (= j1 0))

;; "o"
(define-fun o72 () Int
  (length m))

;; "length'result'unused"
(define-fun lengthqtresultqtunused1 () Int
  o72)

;; "Ensures"
(assert (in_range3 o72))

;; "range_check_'result'unused"
(define-fun range_check_qtresultqtunused1 () Int
  o72)

;; "int__content'result'unused"
(define-fun int__contentqtresultqtunused4 () Int
  m_offset1)

;; "int__content'result'unused"
(define-fun int__contentqtresultqtunused5 () Int
  n1)

;; "o"
(define-fun o73 () Int
  (+ n1 m_offset1))

;; "infix +'result'unused"
(define-fun infix_plqtresultqtunused () Int
  o73)

;; "Ensures"
(assert (in_range3 o73))

;; "range_check_'result'unused"
(define-fun range_check_qtresultqtunused2 () Int
  o73)

;; "infix ='result'unused"
(define-fun infix_eqqtresultqtunused () Bool
  (ite (= o73 o72) true false))

(declare-const u1 (_ BitVec 32))

(declare-const j2 Int)

(declare-const n2 Int)

(declare-const m_offset2 Int)

(declare-const x2 map2)

(declare-const h2 map2)

(declare-const c2 map2)

;; "c'unused"
(define-fun cqtunused1 () map__ref1
  (map__refqtmk1 c2))

;; "h'unused"
(define-fun hqtunused2 () map__ref1
  (map__refqtmk1 h2))

;; "x'unused"
(define-fun xqtunused2 () map__ref1
  (map__refqtmk1 x2))

;; "m_offset'unused"
(define-fun m_offsetqtunused2 () int__ref
  (int__refqtmk m_offset2))

;; "n'unused"
(define-fun nqtunused2 () int__ref
  (int__refqtmk n2))

;; "j'unused"
(define-fun jqtunused1 () int__ref
  (int__refqtmk j2))

;; "LoopInvariant"
(assert (= (+ n2 m_offset2) (length m)))

;; "loop_var___17590'unused"
(define-fun loop_var___17590qtunused () Int
  n2)

;; "int__content'result'unused"
(define-fun int__contentqtresultqtunused6 () Int
  n2)

;; "Assume"
(assert
  (and
    (and
      (and
        (and (and (in_range2 j2) (in_range4 n2)) (in_range1 m_offset2))
        (has_bounds1 x2 0 16))
      (has_bounds1 h2 0 16))
    (has_bounds1 c2 0 16)))

;; "int__content'result'unused"
(define-fun int__contentqtresultqtunused7 () Int
  n2)

;; "int__content'result'unused"
(define-fun int__contentqtresultqtunused8 () Int
  j2)

;; "o"
(define-fun o74 () Bool
  (ite (< j2 n2) true false))

;; "infix <'result'unused"
(define-fun infix_lsqtresultqtunused () Bool
  o74)

;; "int__content'result'unused"
(define-fun int__contentqtresultqtunused9 () Int
  j2)

;; "o"
(define-fun o75 () Bool
  (ite (< j2 16) true false))

;; "infix <'result'unused"
(define-fun infix_lsqtresultqtunused1 () Bool
  o75)

;; "o"
(define-fun o76 () Bool
  (and o75 o74))

;; "andb'result'unused"
(define-fun andbqtresultqtunused () Bool
  o76)

;; "H"
(assert (= o76 true))

;; "temp___loop_entry_692'unused"
(define-fun temp___loop_entry_692qtunused () map2
  c2)

;; "map__content'result'unused"
(define-fun map__contentqtresultqtunused3 () map2
  c2)

;; "temp___loop_entry_690'unused"
(define-fun temp___loop_entry_690qtunused () Int
  j2)

;; "int__content'result'unused"
(define-fun int__contentqtresultqtunused10 () Int
  j2)

;; "int__content'result'unused"
(define-fun int__contentqtresultqtunused11 () Int
  j2)

;; "int__content'result'unused"
(define-fun int__contentqtresultqtunused12 () Int
  m_offset2)

;; "o"
(define-fun o77 () Int
  (+ m_offset2 j2))

;; "infix +'result'unused"
(define-fun infix_plqtresultqtunused1 () Int
  o77)

;; "Ensures"
(assert (in_range o77))

;; "range_check_'result'unused"
(define-fun range_check_qtresultqtunused3 () Int
  o77)

;; "o"
(define-fun o78 () Int
  (last m))

;; "last'result'unused"
(define-fun lastqtresultqtunused () Int
  o78)

;; "o"
(define-fun o79 () Bool
  (ite (<= o77 o78) true false))

;; "infix <='result'unused"
(define-fun infix_lseqqtresultqtunused () Bool
  o79)

;; "o"
(define-fun o80 () Int
  (first m))

;; "first'result'unused"
(define-fun firstqtresultqtunused () Int
  o80)

;; "o"
(define-fun o81 () Bool
  (ite (<= o80 o77) true false))

;; "infix <='result'unused"
(define-fun infix_lseqqtresultqtunused1 () Bool
  o81)

;; "o"
(define-fun o82 () Bool
  (and o81 o79))

;; "andb'result'unused"
(define-fun andbqtresultqtunused1 () Bool
  o82)

;; "o"
(define-fun o83 () Int
  (length m))

;; "length'result'unused"
(define-fun lengthqtresultqtunused2 () Int
  o83)

;; "Ensures"
(assert (in_range3 o83))

;; "range_check_'result'unused"
(define-fun range_check_qtresultqtunused4 () Int
  o83)

;; "int__content'result'unused"
(define-fun int__contentqtresultqtunused13 () Int
  m_offset2)

;; "int__content'result'unused"
(define-fun int__contentqtresultqtunused14 () Int
  n2)

;; "o"
(define-fun o84 () Int
  (+ n2 m_offset2))

;; "infix +'result'unused"
(define-fun infix_plqtresultqtunused2 () Int
  o84)

;; Goal "def'vc"
;; File "sparknacl-mac.ads", line 27, characters 0-0
(assert
  (not (<= o84 9223372036854775807)))

(check-sat)
